************************************************************************
file with basedata            : md380_.bas
initial value random generator: 554370769
************************************************************************
projects                      :  1
jobs (incl. supersource/sink ):  22
horizon                       :  176
RESOURCES
  - renewable                 :  2   R
  - nonrenewable              :  2   N
  - doubly constrained        :  0   D
************************************************************************
PROJECT INFORMATION:
pronr.  #jobs rel.date duedate tardcost  MPM-Time
    1     20      0       23       10       23
************************************************************************
PRECEDENCE RELATIONS:
jobnr.    #modes  #successors   successors
   1        1          3           2   3   4
   2        3          3           7   8  10
   3        3          3           6   9  12
   4        3          2           5  17
   5        3          1          11
   6        3          3          14  15  19
   7        3          3           9  11  12
   8        3          2           9  14
   9        3          3          13  16  18
  10        3          3          12  13  20
  11        3          2          18  21
  12        3          2          14  15
  13        3          1          17
  14        3          1          21
  15        3          1          16
  16        3          1          17
  17        3          1          21
  18        3          2          19  20
  19        3          1          22
  20        3          1          22
  21        3          1          22
  22        1          0        
************************************************************************
REQUESTS/DURATIONS:
jobnr. mode duration  R 1  R 2  N 1  N 2
------------------------------------------------------------------------
  1      1     0       0    0    0    0
  2      1     2       0    7    5    7
         2     6       5    0    4    6
         3     9       4    0    1    6
  3      1     5       0    7    9   10
         2     7       5    0    4    8
         3    10       0    5    4    7
  4      1     2       9    0    7    6
         2     5       0    4    5    5
         3     6       8    0    3    5
  5      1     7       0    6    9    2
         2     7       8    0    7    2
         3     8       7    0    7    1
  6      1     1       9    0    6    2
         2     7       0    7    6    2
         3     8       6    0    6    1
  7      1     1       8    0    9    9
         2     4       6    0    9    9
         3    10       0    3    8    8
  8      1     4       0    7    9    1
         2    10       0    2    8    1
         3    10       4    0    9    1
  9      1     4       0    6    8    4
         2     4       4    0    8    3
         3     8       3    0    6    3
 10      1     8       6    0    6    7
         2     9       5    0    5    6
         3    10       5    0    4    3
 11      1     4       0    2    6    9
         2     6       0    2    6    8
         3     9       0    1    5    7
 12      1     3       6    0    8    3
         2     6       5    0    6    2
         3    10       0    6    4    1
 13      1     5       7    0    9   10
         2     7       5    0    8    8
         3    10       2    0    8    5
 14      1     8       9    0    1    9
         2     8       0    2    1    9
         3     9       9    0    1    8
 15      1     2       6    0    5    8
         2     5       5    0    5    7
         3     9       0    3    4    5
 16      1     4       0    3    8    6
         2     8       0    2    8    5
         3    10       0    1    6    5
 17      1     1       0    6    7    5
         2     6       7    0    5    3
         3     8       7    0    5    2
 18      1     1       7    0    5    7
         2     1       0    9    5    9
         3     8       7    0    4    5
 19      1     2       7    0    8    9
         2     6       0    3    6    8
         3     7       6    0    4    6
 20      1     4       0    9    7    5
         2     7       8    0    7    4
         3     9       0    6    7    2
 21      1     2       3    0   10    5
         2     7       0   10    6    5
         3     8       0   10    4    5
 22      1     0       0    0    0    0
************************************************************************
RESOURCEAVAILABILITIES:
  R 1  R 2  N 1  N 2
   31   23  142  126
************************************************************************
MAXIMAL LAGS:
from  to  type  delay
    1   22   ES      0
    1    2   ES      0
    2   22   ES      0
    1    3   ES      0
    3   22   ES      0
    1    4   ES      0
    4   22   ES      0
    1    5   ES      0
    5   22   ES      0
    1    6   ES      0
    6   22   ES      0
    1    7   ES      0
    7   22   ES      0
    1    8   ES      0
    8   22   ES      0
    1    9   ES      0
    9   22   ES      0
    1   10   ES      0
   10   22   ES      0
    1   11   ES      0
   11   22   ES      0
    1   12   ES      0
   12   22   ES      0
    1   13   ES      0
   13   22   ES      0
    1   14   ES      0
   14   22   ES      0
    1   15   ES      0
   15   22   ES      0
    1   16   ES      0
   16   22   ES      0
    1   17   ES      0
   17   22   ES      0
    1   18   ES      0
   18   22   ES      0
    1   19   ES      0
   19   22   ES      0
    1   20   ES      0
   20   22   ES      0
    1   21   ES      0
   21   22   ES      0
    1   22   ES      0
    2    7   SS    -10
    2    7   SE      3
    2    7   ES     11
    2    7   EE     12
    2    8   SS     -6
    2    8   SE      1
    2    8   ES     -7
    2    8   EE      6
    2   10   SS     -8
    2   10   SE     -3
    2   10   ES     -2
    2   10   EE      7
    3    6   SS      9
    3    6   SE      5
    3    6   ES      6
    3    6   EE      3
    3    9   SS     10
    3    9   SE      2
    3    9   ES      2
    3    9   EE     -6
    3   12   SS      5
    3   12   SE     11
    3   12   ES     11
    3   12   EE     -7
    4    5   SS     10
    4    5   SE     -3
    4    5   ES     -6
    4    5   EE      4
    4   17   SS     -8
    4   17   SE    -10
    4   17   ES     -4
    4   17   EE      1
    5   11   SS     -7
    5   11   SE      7
    5   11   ES     -7
    5   11   EE     -7
    6   14   SS     -7
    6   14   SE     -7
    6   14   ES      4
    6   14   EE     -5
    6   15   SS     -6
    6   15   SE      4
    6   15   ES     11
    6   15   EE    -10
    6   19   SS     -6
    6   19   SE      4
    6   19   ES     -2
    6   19   EE     -7
    7    9   SS     11
    7    9   SE     -7
    7    9   ES     -6
    7    9   EE     -2
    7   11   SS      7
    7   11   SE    -12
   11    7   SE      0
    7   11   ES      0
    7   11   EE     -8
    7   12   SS      3
    7   12   SE      9
    7   12   ES    -12
    7   12   EE     12
    8    9   SS      6
    8    9   SE     10
    8    9   ES     -3
    8    9   EE    -11
    8   14   SS     11
    8   14   SE      9
    8   14   ES     -9
    8   14   EE     -4
    9   13   SS     -3
    9   13   SE    -10
    9   13   ES     -7
    9   13   EE     -3
    9   16   SS     -2
    9   16   SE     -7
    9   16   ES     -7
    9   16   EE      6
    9   18   SS     -8
    9   18   SE     -4
    9   18   ES     -1
    9   18   EE      0
   10   12   SS      2
   10   12   SE      9
   10   12   ES    -12
   10   12   EE      4
   10   13   SS      9
   10   13   SE      8
   10   13   ES      6
   10   13   EE     -5
   10   20   SS      6
   10   20   SE     10
   10   20   ES     -5
   10   20   EE     10
   11   18   SS      8
   11   18   SE     -1
   11   18   ES    -11
   11   18   EE     -4
   11   21   SS      1
   11   21   SE     -7
   11   21   ES     10
   11   21   EE      7
   12   14   SS     10
   12   14   SE     -6
   12   14   ES     -6
   12   14   EE      8
   12   15   SS      2
   12   15   SE     -4
   12   15   ES     -9
   12   15   EE     -1
   13   17   SS     -6
   13   17   SE     -2
   13   17   ES      5
   13   17   EE     11
   14   21   SS     -5
   14   21   SE     -6
   14   21   ES     10
   14   21   EE      4
   15   16   SS      2
   15   16   SE      4
   15   16   ES      8
   15   16   EE      6
   16   17   SS     -1
   16   17   SE      7
   16   17   ES    -10
   16   17   EE     11
   17   21   SS      7
   17   21   SE    -12
   17   21   ES     -2
   17   21   EE     -5
   18   19   SS     12
   18   19   SE    -11
   18   19   ES      6
   18   19   EE      8
   18   20   SS     11
   18   20   SE     -4
   18   20   ES     -2
   18   20   EE      5
************************************************************************
